p edge 3001 2916
e 1 2
e 1 3
e 1 4
e 1 5
e 1 6
e 1 7
e 1 8
e 1 9
e 1 10
e 1 11
e 1 12
e 1 13
e 1 14
e 1 15
e 1 16
e 1 17
e 1 18
e 1 19
e 1 20
e 1 21
e 1 22
e 1 23
e 1 24
e 1 25
e 1 26
e 1 27
e 1 28
e 29 30
e 29 31
e 29 32
e 29 33
e 29 34
e 29 35
e 29 36
e 29 37
e 29 38
e 29 39
e 29 40
e 29 41
e 29 42
e 29 43
e 29 44
e 29 45
e 29 46
e 29 47
e 29 48
e 29 49
e 29 50
e 29 51
e 29 52
e 29 53
e 29 54
e 29 55
e 29 56
e 29 57
e 29 58
e 29 59
e 29 60
e 29 61
e 29 62
e 29 63
e 29 64
e 29 65
e 29 66
e 29 67
e 29 68
e 29 69
e 29 70
e 29 71
e 29 72
e 29 73
e 29 74
e 29 75
e 29 76
e 29 77
e 29 78
e 29 79
e 29 80
e 29 81
e 29 82
e 29 83
e 29 84
e 29 85
e 29 86
e 29 87
e 29 88
e 89 90
e 89 91
e 89 92
e 89 93
e 89 94
e 89 95
e 89 96
e 89 97
e 89 98
e 89 99
e 89 100
e 89 101
e 89 102
e 89 103
e 89 104
e 89 105
e 89 106
e 89 107
e 89 108
e 89 109
e 89 110
e 89 111
e 89 112
e 89 113
e 89 114
e 89 115
e 89 116
e 89 117
e 89 118
e 89 119
e 89 120
e 89 121
e 89 122
e 89 123
e 89 124
e 89 125
e 89 126
e 89 127
e 89 128
e 89 129
e 89 130
e 89 131
e 132 133
e 132 134
e 132 135
e 132 136
e 132 137
e 132 138
e 132 139
e 132 140
e 132 141
e 132 142
e 132 143
e 132 144
e 132 145
e 132 146
e 132 147
e 132 148
e 132 149
e 150 151
e 150 152
e 150 153
e 150 154
e 150 155
e 150 156
e 150 157
e 150 158
e 150 159
e 150 160
e 150 161
e 150 162
e 150 163
e 150 164
e 150 165
e 150 166
e 150 167
e 150 168
e 150 169
e 150 170
e 150 171
e 150 172
e 150 173
e 150 174
e 150 175
e 150 176
e 177 178
e 177 179
e 177 180
e 177 181
e 177 182
e 177 183
e 177 184
e 177 185
e 177 186
e 177 187
e 177 188
e 177 189
e 177 190
e 191 192
e 191 193
e 191 194
e 191 195
e 191 196
e 191 197
e 191 198
e 191 199
e 191 200
e 191 201
e 191 202
e 191 203
e 191 204
e 205 206
e 205 207
e 205 208
e 205 209
e 205 210
e 205 211
e 205 212
e 205 213
e 205 214
e 205 215
e 205 216
e 205 217
e 205 218
e 205 219
e 205 220
e 205 221
e 205 222
e 205 223
e 205 224
e 205 225
e 205 226
e 205 227
e 205 228
e 205 229
e 205 230
e 205 231
e 205 232
e 205 233
e 205 234
e 205 235
e 205 236
e 205 237
e 205 238
e 205 239
e 205 240
e 205 241
e 205 242
e 205 243
e 205 244
e 205 245
e 205 246
e 205 247
e 205 248
e 205 249
e 205 250
e 205 251
e 205 252
e 253 254
e 253 255
e 253 256
e 253 257
e 253 258
e 253 259
e 253 260
e 253 261
e 253 262
e 253 263
e 253 264
e 253 265
e 266 267
e 266 268
e 266 269
e 266 270
e 266 271
e 266 272
e 266 273
e 266 274
e 266 275
e 266 276
e 266 277
e 266 278
e 266 279
e 266 280
e 266 281
e 266 282
e 266 283
e 266 284
e 266 285
e 266 286
e 266 287
e 266 288
e 266 289
e 266 290
e 266 291
e 266 292
e 266 293
e 266 294
e 266 295
e 266 296
e 266 297
e 266 298
e 266 299
e 266 300
e 266 301
e 266 302
e 266 303
e 266 304
e 266 305
e 266 306
e 266 307
e 266 308
e 266 309
e 266 310
e 266 311
e 266 312
e 266 313
e 266 314
e 266 315
e 266 316
e 266 317
e 266 318
e 266 319
e 266 320
e 266 321
e 266 322
e 266 323
e 324 325
e 324 326
e 324 327
e 324 328
e 324 329
e 324 330
e 324 331
e 324 332
e 324 333
e 324 334
e 324 335
e 324 336
e 324 337
e 324 338
e 324 339
e 324 340
e 324 341
e 324 342
e 324 343
e 324 344
e 324 345
e 346 347
e 346 348
e 346 349
e 346 350
e 346 351
e 346 352
e 346 353
e 346 354
e 346 355
e 346 356
e 346 357
e 346 358
e 346 359
e 346 360
e 346 361
e 346 362
e 346 363
e 346 364
e 346 365
e 346 366
e 346 367
e 346 368
e 346 369
e 346 370
e 346 371
e 346 372
e 346 373
e 346 374
e 346 375
e 346 376
e 346 377
e 346 378
e 346 379
e 346 380
e 346 381
e 346 382
e 346 383
e 346 384
e 346 385
e 346 386
e 346 387
e 346 388
e 346 389
e 346 390
e 346 391
e 392 393
e 392 394
e 392 395
e 392 396
e 392 397
e 392 398
e 392 399
e 392 400
e 392 401
e 392 402
e 392 403
e 392 404
e 392 405
e 392 406
e 392 407
e 392 408
e 392 409
e 392 410
e 392 411
e 392 412
e 392 413
e 392 414
e 392 415
e 392 416
e 417 418
e 417 419
e 417 420
e 417 421
e 417 422
e 417 423
e 417 424
e 417 425
e 417 426
e 417 427
e 417 428
e 417 429
e 417 430
e 417 431
e 417 432
e 417 433
e 417 434
e 417 435
e 417 436
e 417 437
e 417 438
e 417 439
e 417 440
e 417 441
e 417 442
e 417 443
e 417 444
e 417 445
e 417 446
e 417 447
e 417 448
e 417 449
e 417 450
e 417 451
e 417 452
e 417 453
e 417 454
e 417 455
e 417 456
e 417 457
e 417 458
e 417 459
e 417 460
e 417 461
e 417 462
e 417 463
e 417 464
e 417 465
e 466 467
e 466 468
e 466 469
e 466 470
e 466 471
e 466 472
e 466 473
e 466 474
e 466 475
e 466 476
e 466 477
e 466 478
e 466 479
e 466 480
e 466 481
e 466 482
e 483 484
e 483 485
e 483 486
e 483 487
e 483 488
e 483 489
e 483 490
e 483 491
e 483 492
e 483 493
e 483 494
e 495 496
e 495 497
e 495 498
e 495 499
e 495 500
e 495 501
e 495 502
e 495 503
e 495 504
e 495 505
e 495 506
e 495 507
e 495 508
e 495 509
e 495 510
e 495 511
e 495 512
e 495 513
e 495 514
e 495 515
e 495 516
e 495 517
e 495 518
e 495 519
e 495 520
e 495 521
e 495 522
e 495 523
e 495 524
e 495 525
e 495 526
e 495 527
e 495 528
e 495 529
e 495 530
e 495 531
e 495 532
e 495 533
e 495 534
e 495 535
e 495 536
e 495 537
e 495 538
e 495 539
e 495 540
e 495 541
e 495 542
e 495 543
e 495 544
e 545 546
e 545 547
e 545 548
e 545 549
e 545 550
e 545 551
e 545 552
e 545 553
e 545 554
e 545 555
e 545 556
e 545 557
e 558 559
e 558 560
e 558 561
e 558 562
e 558 563
e 558 564
e 558 565
e 558 566
e 558 567
e 558 568
e 558 569
e 558 570
e 558 571
e 558 572
e 558 573
e 558 574
e 558 575
e 558 576
e 558 577
e 558 578
e 558 579
e 558 580
e 558 581
e 558 582
e 558 583
e 558 584
e 558 585
e 558 586
e 558 587
e 558 588
e 558 589
e 558 590
e 558 591
e 558 592
e 558 593
e 594 595
e 594 596
e 594 597
e 594 598
e 594 599
e 594 600
e 594 601
e 594 602
e 594 603
e 594 604
e 594 605
e 594 606
e 594 607
e 594 608
e 594 609
e 594 610
e 594 611
e 594 612
e 594 613
e 594 614
e 594 615
e 594 616
e 594 617
e 594 618
e 594 619
e 594 620
e 594 621
e 594 622
e 594 623
e 594 624
e 594 625
e 594 626
e 594 627
e 628 629
e 628 630
e 628 631
e 628 632
e 628 633
e 628 634
e 628 635
e 628 636
e 628 637
e 628 638
e 628 639
e 628 640
e 628 641
e 628 642
e 628 643
e 628 644
e 628 645
e 628 646
e 628 647
e 628 648
e 628 649
e 628 650
e 628 651
e 628 652
e 628 653
e 628 654
e 628 655
e 628 656
e 628 657
e 628 658
e 628 659
e 660 661
e 660 662
e 660 663
e 660 664
e 660 665
e 660 666
e 660 667
e 660 668
e 660 669
e 660 670
e 660 671
e 660 672
e 660 673
e 660 674
e 660 675
e 660 676
e 660 677
e 660 678
e 660 679
e 680 681
e 680 682
e 680 683
e 680 684
e 680 685
e 680 686
e 680 687
e 680 688
e 680 689
e 680 690
e 680 691
e 680 692
e 680 693
e 680 694
e 680 695
e 680 696
e 680 697
e 680 698
e 680 699
e 680 700
e 680 701
e 680 702
e 703 704
e 703 705
e 703 706
e 703 707
e 703 708
e 703 709
e 703 710
e 703 711
e 703 712
e 703 713
e 703 714
e 703 715
e 703 716
e 703 717
e 703 718
e 703 719
e 703 720
e 703 721
e 703 722
e 703 723
e 703 724
e 703 725
e 703 726
e 703 727
e 703 728
e 703 729
e 703 730
e 731 732
e 731 733
e 731 734
e 731 735
e 731 736
e 731 737
e 731 738
e 731 739
e 731 740
e 731 741
e 731 742
e 731 743
e 731 744
e 731 745
e 731 746
e 731 747
e 731 748
e 731 749
e 731 750
e 731 751
e 731 752
e 731 753
e 731 754
e 731 755
e 731 756
e 731 757
e 731 758
e 731 759
e 731 760
e 731 761
e 731 762
e 731 763
e 731 764
e 731 765
e 731 766
e 731 767
e 731 768
e 731 769
e 731 770
e 731 771
e 731 772
e 731 773
e 731 774
e 731 775
e 731 776
e 731 777
e 731 778
e 731 779
e 731 780
e 731 781
e 731 782
e 731 783
e 731 784
e 731 785
e 731 786
e 731 787
e 731 788
e 731 789
e 731 790
e 731 791
e 792 793
e 792 794
e 792 795
e 792 796
e 792 797
e 792 798
e 792 799
e 792 800
e 792 801
e 792 802
e 792 803
e 792 804
e 792 805
e 792 806
e 792 807
e 792 808
e 792 809
e 792 810
e 792 811
e 792 812
e 792 813
e 792 814
e 792 815
e 792 816
e 792 817
e 792 818
e 792 819
e 792 820
e 792 821
e 792 822
e 792 823
e 792 824
e 792 825
e 792 826
e 827 828
e 827 829
e 827 830
e 827 831
e 827 832
e 827 833
e 827 834
e 827 835
e 827 836
e 827 837
e 827 838
e 827 839
e 827 840
e 827 841
e 827 842
e 827 843
e 827 844
e 827 845
e 827 846
e 827 847
e 827 848
e 827 849
e 827 850
e 827 851
e 827 852
e 827 853
e 827 854
e 855 856
e 855 857
e 855 858
e 855 859
e 855 860
e 855 861
e 855 862
e 855 863
e 855 864
e 855 865
e 855 866
e 855 867
e 855 868
e 855 869
e 855 870
e 855 871
e 855 872
e 855 873
e 855 874
e 855 875
e 855 876
e 855 877
e 855 878
e 855 879
e 855 880
e 855 881
e 855 882
e 855 883
e 855 884
e 855 885
e 855 886
e 855 887
e 855 888
e 855 889
e 855 890
e 855 891
e 855 892
e 855 893
e 855 894
e 855 895
e 855 896
e 855 897
e 855 898
e 899 900
e 899 901
e 899 902
e 899 903
e 899 904
e 899 905
e 899 906
e 899 907
e 899 908
e 899 909
e 899 910
e 899 911
e 899 912
e 899 913
e 899 914
e 899 915
e 899 916
e 899 917
e 899 918
e 899 919
e 899 920
e 899 921
e 899 922
e 899 923
e 899 924
e 899 925
e 899 926
e 927 928
e 927 929
e 927 930
e 927 931
e 927 932
e 927 933
e 927 934
e 927 935
e 927 936
e 927 937
e 927 938
e 927 939
e 927 940
e 927 941
e 927 942
e 927 943
e 927 944
e 927 945
e 927 946
e 927 947
e 927 948
e 927 949
e 927 950
e 927 951
e 927 952
e 927 953
e 927 954
e 927 955
e 927 956
e 927 957
e 927 958
e 927 959
e 927 960
e 927 961
e 962 963
e 962 964
e 962 965
e 962 966
e 962 967
e 962 968
e 962 969
e 962 970
e 962 971
e 962 972
e 962 973
e 962 974
e 962 975
e 962 976
e 962 977
e 962 978
e 962 979
e 962 980
e 962 981
e 962 982
e 962 983
e 962 984
e 962 985
e 962 986
e 962 987
e 962 988
e 962 989
e 962 990
e 962 991
e 962 992
e 962 993
e 962 994
e 962 995
e 962 996
e 962 997
e 962 998
e 962 999
e 1000 1001
e 1000 1002
e 1000 1003
e 1000 1004
e 1000 1005
e 1000 1006
e 1000 1007
e 1000 1008
e 1000 1009
e 1000 1010
e 1000 1011
e 1000 1012
e 1000 1013
e 1000 1014
e 1000 1015
e 1000 1016
e 1000 1017
e 1000 1018
e 1000 1019
e 1000 1020
e 1000 1021
e 1000 1022
e 1000 1023
e 1000 1024
e 1000 1025
e 1000 1026
e 1000 1027
e 1000 1028
e 1000 1029
e 1000 1030
e 1000 1031
e 1000 1032
e 1000 1033
e 1000 1034
e 1000 1035
e 1000 1036
e 1000 1037
e 1000 1038
e 1000 1039
e 1000 1040
e 1000 1041
e 1000 1042
e 1000 1043
e 1000 1044
e 1000 1045
e 1000 1046
e 1000 1047
e 1000 1048
e 1000 1049
e 1000 1050
e 1000 1051
e 1000 1052
e 1000 1053
e 1000 1054
e 1000 1055
e 1000 1056
e 1000 1057
e 1058 1059
e 1058 1060
e 1058 1061
e 1058 1062
e 1058 1063
e 1058 1064
e 1058 1065
e 1058 1066
e 1058 1067
e 1058 1068
e 1058 1069
e 1058 1070
e 1058 1071
e 1058 1072
e 1058 1073
e 1058 1074
e 1058 1075
e 1058 1076
e 1058 1077
e 1058 1078
e 1058 1079
e 1058 1080
e 1058 1081
e 1058 1082
e 1058 1083
e 1084 1085
e 1084 1086
e 1084 1087
e 1084 1088
e 1084 1089
e 1084 1090
e 1084 1091
e 1084 1092
e 1084 1093
e 1084 1094
e 1084 1095
e 1084 1096
e 1084 1097
e 1084 1098
e 1084 1099
e 1084 1100
e 1084 1101
e 1084 1102
e 1084 1103
e 1084 1104
e 1084 1105
e 1084 1106
e 1084 1107
e 1084 1108
e 1084 1109
e 1084 1110
e 1084 1111
e 1084 1112
e 1084 1113
e 1084 1114
e 1084 1115
e 1084 1116
e 1084 1117
e 1084 1118
e 1084 1119
e 1084 1120
e 1084 1121
e 1084 1122
e 1084 1123
e 1084 1124
e 1084 1125
e 1084 1126
e 1084 1127
e 1084 1128
e 1084 1129
e 1084 1130
e 1084 1131
e 1084 1132
e 1084 1133
e 1084 1134
e 1084 1135
e 1084 1136
e 1137 1138
e 1137 1139
e 1137 1140
e 1137 1141
e 1137 1142
e 1137 1143
e 1137 1144
e 1137 1145
e 1137 1146
e 1137 1147
e 1137 1148
e 1137 1149
e 1137 1150
e 1137 1151
e 1137 1152
e 1137 1153
e 1137 1154
e 1137 1155
e 1137 1156
e 1137 1157
e 1137 1158
e 1137 1159
e 1137 1160
e 1137 1161
e 1137 1162
e 1137 1163
e 1137 1164
e 1137 1165
e 1137 1166
e 1137 1167
e 1137 1168
e 1137 1169
e 1137 1170
e 1137 1171
e 1137 1172
e 1137 1173
e 1137 1174
e 1137 1175
e 1137 1176
e 1137 1177
e 1137 1178
e 1137 1179
e 1137 1180
e 1137 1181
e 1182 1183
e 1182 1184
e 1182 1185
e 1182 1186
e 1182 1187
e 1182 1188
e 1182 1189
e 1182 1190
e 1182 1191
e 1182 1192
e 1182 1193
e 1182 1194
e 1182 1195
e 1182 1196
e 1182 1197
e 1182 1198
e 1182 1199
e 1182 1200
e 1182 1201
e 1182 1202
e 1182 1203
e 1182 1204
e 1182 1205
e 1182 1206
e 1182 1207
e 1182 1208
e 1182 1209
e 1182 1210
e 1182 1211
e 1182 1212
e 1182 1213
e 1182 1214
e 1182 1215
e 1182 1216
e 1182 1217
e 1182 1218
e 1182 1219
e 1182 1220
e 1182 1221
e 1182 1222
e 1182 1223
e 1182 1224
e 1182 1225
e 1182 1226
e 1182 1227
e 1182 1228
e 1182 1229
e 1182 1230
e 1182 1231
e 1182 1232
e 1182 1233
e 1182 1234
e 1235 1236
e 1235 1237
e 1235 1238
e 1235 1239
e 1235 1240
e 1235 1241
e 1235 1242
e 1235 1243
e 1235 1244
e 1235 1245
e 1235 1246
e 1235 1247
e 1235 1248
e 1235 1249
e 1235 1250
e 1235 1251
e 1235 1252
e 1235 1253
e 1235 1254
e 1235 1255
e 1235 1256
e 1235 1257
e 1235 1258
e 1235 1259
e 1235 1260
e 1235 1261
e 1235 1262
e 1235 1263
e 1235 1264
e 1235 1265
e 1235 1266
e 1235 1267
e 1235 1268
e 1235 1269
e 1235 1270
e 1271 1272
e 1271 1273
e 1271 1274
e 1271 1275
e 1271 1276
e 1271 1277
e 1271 1278
e 1271 1279
e 1271 1280
e 1271 1281
e 1271 1282
e 1271 1283
e 1271 1284
e 1271 1285
e 1271 1286
e 1271 1287
e 1271 1288
e 1271 1289
e 1271 1290
e 1271 1291
e 1271 1292
e 1271 1293
e 1271 1294
e 1271 1295
e 1271 1296
e 1271 1297
e 1271 1298
e 1271 1299
e 1271 1300
e 1271 1301
e 1271 1302
e 1271 1303
e 1271 1304
e 1271 1305
e 1271 1306
e 1271 1307
e 1271 1308
e 1271 1309
e 1271 1310
e 1271 1311
e 1271 1312
e 1271 1313
e 1271 1314
e 1271 1315
e 1271 1316
e 1271 1317
e 1271 1318
e 1271 1319
e 1271 1320
e 1271 1321
e 1271 1322
e 1271 1323
e 1324 1325
e 1324 1326
e 1324 1327
e 1324 1328
e 1324 1329
e 1324 1330
e 1324 1331
e 1324 1332
e 1324 1333
e 1324 1334
e 1324 1335
e 1324 1336
e 1324 1337
e 1324 1338
e 1324 1339
e 1324 1340
e 1324 1341
e 1324 1342
e 1324 1343
e 1324 1344
e 1324 1345
e 1324 1346
e 1324 1347
e 1324 1348
e 1324 1349
e 1324 1350
e 1324 1351
e 1324 1352
e 1324 1353
e 1324 1354
e 1324 1355
e 1324 1356
e 1324 1357
e 1324 1358
e 1324 1359
e 1324 1360
e 1324 1361
e 1324 1362
e 1324 1363
e 1324 1364
e 1324 1365
e 1324 1366
e 1324 1367
e 1324 1368
e 1324 1369
e 1324 1370
e 1324 1371
e 1324 1372
e 1324 1373
e 1324 1374
e 1324 1375
e 1376 1377
e 1376 1378
e 1376 1379
e 1376 1380
e 1376 1381
e 1376 1382
e 1376 1383
e 1376 1384
e 1376 1385
e 1376 1386
e 1376 1387
e 1376 1388
e 1376 1389
e 1376 1390
e 1376 1391
e 1392 1393
e 1392 1394
e 1392 1395
e 1392 1396
e 1392 1397
e 1392 1398
e 1392 1399
e 1392 1400
e 1392 1401
e 1392 1402
e 1392 1403
e 1392 1404
e 1392 1405
e 1392 1406
e 1392 1407
e 1392 1408
e 1392 1409
e 1392 1410
e 1392 1411
e 1392 1412
e 1392 1413
e 1392 1414
e 1392 1415
e 1392 1416
e 1392 1417
e 1392 1418
e 1392 1419
e 1392 1420
e 1392 1421
e 1422 1423
e 1422 1424
e 1422 1425
e 1422 1426
e 1422 1427
e 1422 1428
e 1422 1429
e 1422 1430
e 1422 1431
e 1422 1432
e 1422 1433
e 1422 1434
e 1422 1435
e 1422 1436
e 1422 1437
e 1422 1438
e 1422 1439
e 1422 1440
e 1422 1441
e 1422 1442
e 1422 1443
e 1422 1444
e 1422 1445
e 1422 1446
e 1422 1447
e 1422 1448
e 1422 1449
e 1422 1450
e 1422 1451
e 1422 1452
e 1422 1453
e 1422 1454
e 1422 1455
e 1422 1456
e 1422 1457
e 1422 1458
e 1422 1459
e 1422 1460
e 1422 1461
e 1422 1462
e 1422 1463
e 1422 1464
e 1422 1465
e 1422 1466
e 1422 1467
e 1422 1468
e 1422 1469
e 1422 1470
e 1422 1471
e 1422 1472
e 1422 1473
e 1422 1474
e 1422 1475
e 1476 1477
e 1476 1478
e 1476 1479
e 1476 1480
e 1476 1481
e 1476 1482
e 1476 1483
e 1476 1484
e 1476 1485
e 1476 1486
e 1476 1487
e 1476 1488
e 1476 1489
e 1476 1490
e 1476 1491
e 1476 1492
e 1476 1493
e 1476 1494
e 1476 1495
e 1476 1496
e 1476 1497
e 1476 1498
e 1476 1499
e 1476 1500
e 1476 1501
e 1476 1502
e 1476 1503
e 1476 1504
e 1476 1505
e 1476 1506
e 1476 1507
e 1476 1508
e 1476 1509
e 1476 1510
e 1476 1511
e 1476 1512
e 1476 1513
e 1476 1514
e 1476 1515
e 1476 1516
e 1476 1517
e 1476 1518
e 1476 1519
e 1476 1520
e 1476 1521
e 1476 1522
e 1476 1523
e 1476 1524
e 1525 1526
e 1525 1527
e 1525 1528
e 1525 1529
e 1525 1530
e 1525 1531
e 1525 1532
e 1525 1533
e 1525 1534
e 1525 1535
e 1525 1536
e 1525 1537
e 1525 1538
e 1525 1539
e 1525 1540
e 1525 1541
e 1525 1542
e 1525 1543
e 1525 1544
e 1525 1545
e 1525 1546
e 1525 1547
e 1525 1548
e 1525 1549
e 1525 1550
e 1525 1551
e 1525 1552
e 1525 1553
e 1525 1554
e 1525 1555
e 1525 1556
e 1525 1557
e 1525 1558
e 1525 1559
e 1525 1560
e 1525 1561
e 1525 1562
e 1525 1563
e 1525 1564
e 1525 1565
e 1525 1566
e 1525 1567
e 1525 1568
e 1525 1569
e 1525 1570
e 1525 1571
e 1525 1572
e 1525 1573
e 1525 1574
e 1575 1576
e 1575 1577
e 1575 1578
e 1575 1579
e 1575 1580
e 1575 1581
e 1575 1582
e 1575 1583
e 1575 1584
e 1575 1585
e 1575 1586
e 1575 1587
e 1575 1588
e 1575 1589
e 1575 1590
e 1575 1591
e 1575 1592
e 1575 1593
e 1575 1594
e 1575 1595
e 1575 1596
e 1575 1597
e 1575 1598
e 1575 1599
e 1575 1600
e 1601 1602
e 1601 1603
e 1601 1604
e 1601 1605
e 1601 1606
e 1601 1607
e 1601 1608
e 1601 1609
e 1601 1610
e 1601 1611
e 1601 1612
e 1601 1613
e 1601 1614
e 1601 1615
e 1601 1616
e 1601 1617
e 1601 1618
e 1601 1619
e 1601 1620
e 1601 1621
e 1601 1622
e 1601 1623
e 1601 1624
e 1601 1625
e 1601 1626
e 1601 1627
e 1601 1628
e 1629 1630
e 1629 1631
e 1629 1632
e 1629 1633
e 1629 1634
e 1629 1635
e 1629 1636
e 1629 1637
e 1629 1638
e 1629 1639
e 1629 1640
e 1629 1641
e 1629 1642
e 1629 1643
e 1629 1644
e 1629 1645
e 1629 1646
e 1629 1647
e 1629 1648
e 1629 1649
e 1629 1650
e 1629 1651
e 1629 1652
e 1629 1653
e 1629 1654
e 1629 1655
e 1629 1656
e 1629 1657
e 1629 1658
e 1629 1659
e 1629 1660
e 1629 1661
e 1629 1662
e 1629 1663
e 1629 1664
e 1629 1665
e 1629 1666
e 1629 1667
e 1629 1668
e 1629 1669
e 1629 1670
e 1629 1671
e 1629 1672
e 1629 1673
e 1629 1674
e 1629 1675
e 1629 1676
e 1629 1677
e 1629 1678
e 1629 1679
e 1629 1680
e 1629 1681
e 1629 1682
e 1629 1683
e 1629 1684
e 1629 1685
e 1629 1686
e 1687 1688
e 1687 1689
e 1687 1690
e 1687 1691
e 1687 1692
e 1687 1693
e 1687 1694
e 1687 1695
e 1687 1696
e 1687 1697
e 1687 1698
e 1687 1699
e 1687 1700
e 1687 1701
e 1687 1702
e 1687 1703
e 1687 1704
e 1687 1705
e 1706 1707
e 1706 1708
e 1706 1709
e 1706 1710
e 1706 1711
e 1706 1712
e 1706 1713
e 1706 1714
e 1706 1715
e 1706 1716
e 1706 1717
e 1706 1718
e 1706 1719
e 1706 1720
e 1706 1721
e 1706 1722
e 1706 1723
e 1706 1724
e 1706 1725
e 1706 1726
e 1706 1727
e 1706 1728
e 1706 1729
e 1706 1730
e 1731 1732
e 1731 1733
e 1731 1734
e 1731 1735
e 1731 1736
e 1731 1737
e 1731 1738
e 1731 1739
e 1731 1740
e 1731 1741
e 1731 1742
e 1731 1743
e 1731 1744
e 1731 1745
e 1731 1746
e 1731 1747
e 1731 1748
e 1731 1749
e 1731 1750
e 1731 1751
e 1731 1752
e 1731 1753
e 1731 1754
e 1731 1755
e 1731 1756
e 1731 1757
e 1731 1758
e 1731 1759
e 1731 1760
e 1731 1761
e 1731 1762
e 1731 1763
e 1731 1764
e 1731 1765
e 1731 1766
e 1731 1767
e 1731 1768
e 1731 1769
e 1731 1770
e 1731 1771
e 1731 1772
e 1731 1773
e 1731 1774
e 1775 1776
e 1775 1777
e 1775 1778
e 1775 1779
e 1775 1780
e 1775 1781
e 1775 1782
e 1775 1783
e 1775 1784
e 1775 1785
e 1775 1786
e 1775 1787
e 1775 1788
e 1775 1789
e 1775 1790
e 1775 1791
e 1775 1792
e 1775 1793
e 1775 1794
e 1775 1795
e 1775 1796
e 1775 1797
e 1775 1798
e 1775 1799
e 1775 1800
e 1775 1801
e 1775 1802
e 1775 1803
e 1775 1804
e 1775 1805
e 1775 1806
e 1775 1807
e 1775 1808
e 1775 1809
e 1775 1810
e 1775 1811
e 1775 1812
e 1775 1813
e 1775 1814
e 1775 1815
e 1775 1816
e 1775 1817
e 1775 1818
e 1775 1819
e 1775 1820
e 1775 1821
e 1775 1822
e 1775 1823
e 1775 1824
e 1775 1825
e 1775 1826
e 1775 1827
e 1775 1828
e 1775 1829
e 1775 1830
e 1775 1831
e 1775 1832
e 1775 1833
e 1834 1835
e 1834 1836
e 1834 1837
e 1834 1838
e 1834 1839
e 1834 1840
e 1834 1841
e 1834 1842
e 1834 1843
e 1834 1844
e 1834 1845
e 1834 1846
e 1834 1847
e 1834 1848
e 1834 1849
e 1834 1850
e 1834 1851
e 1834 1852
e 1834 1853
e 1834 1854
e 1834 1855
e 1834 1856
e 1834 1857
e 1834 1858
e 1834 1859
e 1834 1860
e 1834 1861
e 1834 1862
e 1834 1863
e 1834 1864
e 1834 1865
e 1834 1866
e 1834 1867
e 1834 1868
e 1834 1869
e 1834 1870
e 1834 1871
e 1834 1872
e 1834 1873
e 1874 1875
e 1874 1876
e 1874 1877
e 1874 1878
e 1874 1879
e 1874 1880
e 1874 1881
e 1874 1882
e 1874 1883
e 1874 1884
e 1874 1885
e 1874 1886
e 1874 1887
e 1874 1888
e 1874 1889
e 1874 1890
e 1874 1891
e 1874 1892
e 1874 1893
e 1874 1894
e 1874 1895
e 1874 1896
e 1874 1897
e 1874 1898
e 1874 1899
e 1874 1900
e 1874 1901
e 1874 1902
e 1874 1903
e 1874 1904
e 1874 1905
e 1874 1906
e 1874 1907
e 1874 1908
e 1874 1909
e 1874 1910
e 1874 1911
e 1874 1912
e 1874 1913
e 1874 1914
e 1874 1915
e 1874 1916
e 1874 1917
e 1874 1918
e 1874 1919
e 1874 1920
e 1874 1921
e 1874 1922
e 1874 1923
e 1874 1924
e 1874 1925
e 1874 1926
e 1874 1927
e 1874 1928
e 1874 1929
e 1874 1930
e 1874 1931
e 1874 1932
e 1874 1933
e 1934 1935
e 1934 1936
e 1934 1937
e 1934 1938
e 1934 1939
e 1934 1940
e 1934 1941
e 1934 1942
e 1934 1943
e 1934 1944
e 1934 1945
e 1934 1946
e 1934 1947
e 1934 1948
e 1934 1949
e 1934 1950
e 1934 1951
e 1934 1952
e 1934 1953
e 1934 1954
e 1934 1955
e 1934 1956
e 1934 1957
e 1934 1958
e 1934 1959
e 1934 1960
e 1934 1961
e 1934 1962
e 1934 1963
e 1934 1964
e 1934 1965
e 1934 1966
e 1934 1967
e 1934 1968
e 1934 1969
e 1934 1970
e 1934 1971
e 1934 1972
e 1973 1974
e 1973 1975
e 1973 1976
e 1973 1977
e 1973 1978
e 1973 1979
e 1973 1980
e 1973 1981
e 1973 1982
e 1973 1983
e 1973 1984
e 1973 1985
e 1973 1986
e 1973 1987
e 1973 1988
e 1973 1989
e 1973 1990
e 1973 1991
e 1973 1992
e 1973 1993
e 1973 1994
e 1973 1995
e 1973 1996
e 1973 1997
e 1973 1998
e 1973 1999
e 1973 2000
e 1973 2001
e 1973 2002
e 2003 2004
e 2003 2005
e 2003 2006
e 2003 2007
e 2003 2008
e 2003 2009
e 2003 2010
e 2003 2011
e 2003 2012
e 2003 2013
e 2003 2014
e 2003 2015
e 2016 2017
e 2016 2018
e 2016 2019
e 2016 2020
e 2016 2021
e 2016 2022
e 2016 2023
e 2016 2024
e 2016 2025
e 2016 2026
e 2016 2027
e 2016 2028
e 2016 2029
e 2016 2030
e 2031 2032
e 2031 2033
e 2031 2034
e 2031 2035
e 2031 2036
e 2031 2037
e 2031 2038
e 2031 2039
e 2031 2040
e 2031 2041
e 2031 2042
e 2031 2043
e 2031 2044
e 2031 2045
e 2031 2046
e 2031 2047
e 2031 2048
e 2031 2049
e 2031 2050
e 2031 2051
e 2031 2052
e 2031 2053
e 2031 2054
e 2031 2055
e 2031 2056
e 2031 2057
e 2031 2058
e 2031 2059
e 2031 2060
e 2031 2061
e 2031 2062
e 2031 2063
e 2031 2064
e 2031 2065
e 2066 2067
e 2066 2068
e 2066 2069
e 2066 2070
e 2066 2071
e 2066 2072
e 2066 2073
e 2066 2074
e 2066 2075
e 2066 2076
e 2066 2077
e 2066 2078
e 2066 2079
e 2066 2080
e 2066 2081
e 2066 2082
e 2066 2083
e 2066 2084
e 2066 2085
e 2066 2086
e 2066 2087
e 2066 2088
e 2066 2089
e 2066 2090
e 2066 2091
e 2066 2092
e 2066 2093
e 2066 2094
e 2066 2095
e 2066 2096
e 2066 2097
e 2066 2098
e 2066 2099
e 2066 2100
e 2066 2101
e 2066 2102
e 2066 2103
e 2066 2104
e 2066 2105
e 2066 2106
e 2066 2107
e 2066 2108
e 2066 2109
e 2110 2111
e 2110 2112
e 2110 2113
e 2110 2114
e 2110 2115
e 2110 2116
e 2110 2117
e 2110 2118
e 2110 2119
e 2110 2120
e 2110 2121
e 2110 2122
e 2110 2123
e 2110 2124
e 2110 2125
e 2110 2126
e 2110 2127
e 2110 2128
e 2110 2129
e 2110 2130
e 2110 2131
e 2110 2132
e 2110 2133
e 2134 2135
e 2134 2136
e 2134 2137
e 2134 2138
e 2134 2139
e 2134 2140
e 2134 2141
e 2134 2142
e 2134 2143
e 2134 2144
e 2134 2145
e 2134 2146
e 2134 2147
e 2134 2148
e 2134 2149
e 2134 2150
e 2134 2151
e 2134 2152
e 2134 2153
e 2134 2154
e 2134 2155
e 2134 2156
e 2134 2157
e 2134 2158
e 2134 2159
e 2160 2161
e 2160 2162
e 2160 2163
e 2160 2164
e 2160 2165
e 2160 2166
e 2160 2167
e 2160 2168
e 2160 2169
e 2160 2170
e 2160 2171
e 2160 2172
e 2160 2173
e 2160 2174
e 2160 2175
e 2160 2176
e 2160 2177
e 2160 2178
e 2160 2179
e 2160 2180
e 2160 2181
e 2160 2182
e 2160 2183
e 2160 2184
e 2160 2185
e 2160 2186
e 2160 2187
e 2160 2188
e 2160 2189
e 2160 2190
e 2160 2191
e 2160 2192
e 2160 2193
e 2160 2194
e 2160 2195
e 2160 2196
e 2160 2197
e 2160 2198
e 2160 2199
e 2160 2200
e 2160 2201
e 2160 2202
e 2160 2203
e 2160 2204
e 2160 2205
e 2160 2206
e 2160 2207
e 2160 2208
e 2160 2209
e 2160 2210
e 2160 2211
e 2160 2212
e 2160 2213
e 2160 2214
e 2160 2215
e 2160 2216
e 2160 2217
e 2160 2218
e 2160 2219
e 2220 2221
e 2220 2222
e 2220 2223
e 2220 2224
e 2220 2225
e 2220 2226
e 2220 2227
e 2220 2228
e 2220 2229
e 2220 2230
e 2220 2231
e 2220 2232
e 2220 2233
e 2220 2234
e 2220 2235
e 2220 2236
e 2220 2237
e 2220 2238
e 2220 2239
e 2220 2240
e 2220 2241
e 2220 2242
e 2220 2243
e 2220 2244
e 2220 2245
e 2220 2246
e 2220 2247
e 2220 2248
e 2220 2249
e 2250 2251
e 2250 2252
e 2250 2253
e 2250 2254
e 2250 2255
e 2250 2256
e 2250 2257
e 2250 2258
e 2250 2259
e 2250 2260
e 2250 2261
e 2250 2262
e 2250 2263
e 2264 2265
e 2264 2266
e 2264 2267
e 2264 2268
e 2264 2269
e 2264 2270
e 2264 2271
e 2264 2272
e 2264 2273
e 2264 2274
e 2264 2275
e 2264 2276
e 2264 2277
e 2264 2278
e 2264 2279
e 2264 2280
e 2264 2281
e 2264 2282
e 2264 2283
e 2264 2284
e 2264 2285
e 2264 2286
e 2264 2287
e 2264 2288
e 2264 2289
e 2264 2290
e 2264 2291
e 2264 2292
e 2264 2293
e 2264 2294
e 2264 2295
e 2264 2296
e 2264 2297
e 2264 2298
e 2264 2299
e 2264 2300
e 2264 2301
e 2264 2302
e 2264 2303
e 2264 2304
e 2264 2305
e 2264 2306
e 2264 2307
e 2264 2308
e 2264 2309
e 2264 2310
e 2264 2311
e 2264 2312
e 2264 2313
e 2264 2314
e 2264 2315
e 2264 2316
e 2264 2317
e 2264 2318
e 2264 2319
e 2320 2321
e 2320 2322
e 2320 2323
e 2320 2324
e 2320 2325
e 2320 2326
e 2320 2327
e 2320 2328
e 2320 2329
e 2320 2330
e 2320 2331
e 2332 2333
e 2332 2334
e 2332 2335
e 2332 2336
e 2332 2337
e 2332 2338
e 2332 2339
e 2332 2340
e 2332 2341
e 2332 2342
e 2332 2343
e 2332 2344
e 2332 2345
e 2332 2346
e 2332 2347
e 2332 2348
e 2332 2349
e 2350 2351
e 2350 2352
e 2350 2353
e 2350 2354
e 2350 2355
e 2350 2356
e 2350 2357
e 2350 2358
e 2350 2359
e 2350 2360
e 2361 2362
e 2361 2363
e 2361 2364
e 2361 2365
e 2361 2366
e 2361 2367
e 2361 2368
e 2361 2369
e 2361 2370
e 2361 2371
e 2361 2372
e 2361 2373
e 2361 2374
e 2361 2375
e 2361 2376
e 2361 2377
e 2361 2378
e 2361 2379
e 2361 2380
e 2361 2381
e 2361 2382
e 2361 2383
e 2361 2384
e 2361 2385
e 2361 2386
e 2361 2387
e 2361 2388
e 2361 2389
e 2361 2390
e 2391 2392
e 2391 2393
e 2391 2394
e 2391 2395
e 2391 2396
e 2391 2397
e 2391 2398
e 2391 2399
e 2391 2400
e 2391 2401
e 2391 2402
e 2391 2403
e 2391 2404
e 2391 2405
e 2391 2406
e 2391 2407
e 2391 2408
e 2391 2409
e 2391 2410
e 2391 2411
e 2391 2412
e 2391 2413
e 2391 2414
e 2391 2415
e 2391 2416
e 2391 2417
e 2391 2418
e 2391 2419
e 2391 2420
e 2391 2421
e 2391 2422
e 2391 2423
e 2391 2424
e 2391 2425
e 2391 2426
e 2391 2427
e 2391 2428
e 2391 2429
e 2391 2430
e 2391 2431
e 2432 2433
e 2432 2434
e 2432 2435
e 2432 2436
e 2432 2437
e 2432 2438
e 2432 2439
e 2432 2440
e 2432 2441
e 2432 2442
e 2432 2443
e 2432 2444
e 2432 2445
e 2432 2446
e 2432 2447
e 2432 2448
e 2432 2449
e 2432 2450
e 2432 2451
e 2432 2452
e 2432 2453
e 2432 2454
e 2432 2455
e 2432 2456
e 2432 2457
e 2432 2458
e 2432 2459
e 2432 2460
e 2432 2461
e 2432 2462
e 2432 2463
e 2432 2464
e 2432 2465
e 2432 2466
e 2432 2467
e 2432 2468
e 2432 2469
e 2432 2470
e 2432 2471
e 2432 2472
e 2432 2473
e 2432 2474
e 2432 2475
e 2432 2476
e 2432 2477
e 2432 2478
e 2432 2479
e 2432 2480
e 2432 2481
e 2432 2482
e 2432 2483
e 2432 2484
e 2432 2485
e 2432 2486
e 2432 2487
e 2432 2488
e 2432 2489
e 2490 2491
e 2490 2492
e 2490 2493
e 2490 2494
e 2490 2495
e 2490 2496
e 2490 2497
e 2490 2498
e 2490 2499
e 2490 2500
e 2490 2501
e 2490 2502
e 2490 2503
e 2490 2504
e 2490 2505
e 2490 2506
e 2490 2507
e 2490 2508
e 2490 2509
e 2490 2510
e 2490 2511
e 2490 2512
e 2490 2513
e 2490 2514
e 2490 2515
e 2490 2516
e 2490 2517
e 2490 2518
e 2490 2519
e 2490 2520
e 2490 2521
e 2490 2522
e 2490 2523
e 2490 2524
e 2490 2525
e 2490 2526
e 2490 2527
e 2490 2528
e 2490 2529
e 2490 2530
e 2490 2531
e 2490 2532
e 2490 2533
e 2490 2534
e 2490 2535
e 2490 2536
e 2490 2537
e 2490 2538
e 2490 2539
e 2490 2540
e 2490 2541
e 2490 2542
e 2490 2543
e 2490 2544
e 2490 2545
e 2546 2547
e 2546 2548
e 2546 2549
e 2546 2550
e 2546 2551
e 2546 2552
e 2546 2553
e 2546 2554
e 2546 2555
e 2546 2556
e 2546 2557
e 2546 2558
e 2546 2559
e 2546 2560
e 2546 2561
e 2546 2562
e 2546 2563
e 2546 2564
e 2546 2565
e 2546 2566
e 2546 2567
e 2546 2568
e 2546 2569
e 2546 2570
e 2546 2571
e 2546 2572
e 2546 2573
e 2574 2575
e 2574 2576
e 2574 2577
e 2574 2578
e 2574 2579
e 2574 2580
e 2574 2581
e 2574 2582
e 2574 2583
e 2574 2584
e 2574 2585
e 2574 2586
e 2574 2587
e 2574 2588
e 2574 2589
e 2574 2590
e 2574 2591
e 2574 2592
e 2574 2593
e 2574 2594
e 2574 2595
e 2574 2596
e 2574 2597
e 2574 2598
e 2574 2599
e 2574 2600
e 2574 2601
e 2574 2602
e 2574 2603
e 2574 2604
e 2574 2605
e 2574 2606
e 2574 2607
e 2574 2608
e 2574 2609
e 2574 2610
e 2574 2611
e 2574 2612
e 2574 2613
e 2574 2614
e 2574 2615
e 2574 2616
e 2574 2617
e 2574 2618
e 2574 2619
e 2574 2620
e 2574 2621
e 2574 2622
e 2574 2623
e 2574 2624
e 2574 2625
e 2626 2627
e 2626 2628
e 2626 2629
e 2626 2630
e 2626 2631
e 2626 2632
e 2626 2633
e 2626 2634
e 2626 2635
e 2626 2636
e 2637 2638
e 2637 2639
e 2637 2640
e 2637 2641
e 2637 2642
e 2637 2643
e 2637 2644
e 2637 2645
e 2637 2646
e 2637 2647
e 2637 2648
e 2637 2649
e 2637 2650
e 2637 2651
e 2637 2652
e 2637 2653
e 2637 2654
e 2637 2655
e 2637 2656
e 2637 2657
e 2637 2658
e 2637 2659
e 2637 2660
e 2637 2661
e 2637 2662
e 2637 2663
e 2664 2665
e 2664 2666
e 2664 2667
e 2664 2668
e 2664 2669
e 2664 2670
e 2664 2671
e 2664 2672
e 2664 2673
e 2664 2674
e 2664 2675
e 2664 2676
e 2664 2677
e 2664 2678
e 2664 2679
e 2664 2680
e 2664 2681
e 2664 2682
e 2664 2683
e 2664 2684
e 2664 2685
e 2664 2686
e 2664 2687
e 2664 2688
e 2664 2689
e 2664 2690
e 2664 2691
e 2664 2692
e 2664 2693
e 2664 2694
e 2664 2695
e 2664 2696
e 2664 2697
e 2664 2698
e 2664 2699
e 2664 2700
e 2664 2701
e 2664 2702
e 2664 2703
e 2664 2704
e 2664 2705
e 2664 2706
e 2664 2707
e 2664 2708
e 2664 2709
e 2664 2710
e 2664 2711
e 2664 2712
e 2664 2713
e 2664 2714
e 2664 2715
e 2716 2717
e 2716 2718
e 2716 2719
e 2716 2720
e 2716 2721
e 2716 2722
e 2716 2723
e 2716 2724
e 2716 2725
e 2716 2726
e 2716 2727
e 2716 2728
e 2716 2729
e 2716 2730
e 2716 2731
e 2716 2732
e 2716 2733
e 2716 2734
e 2716 2735
e 2716 2736
e 2716 2737
e 2716 2738
e 2716 2739
e 2716 2740
e 2716 2741
e 2716 2742
e 2716 2743
e 2716 2744
e 2716 2745
e 2716 2746
e 2716 2747
e 2716 2748
e 2716 2749
e 2716 2750
e 2716 2751
e 2716 2752
e 2716 2753
e 2716 2754
e 2716 2755
e 2716 2756
e 2716 2757
e 2716 2758
e 2716 2759
e 2716 2760
e 2716 2761
e 2716 2762
e 2716 2763
e 2716 2764
e 2716 2765
e 2716 2766
e 2716 2767
e 2716 2768
e 2716 2769
e 2716 2770
e 2716 2771
e 2716 2772
e 2773 2774
e 2773 2775
e 2773 2776
e 2773 2777
e 2773 2778
e 2773 2779
e 2773 2780
e 2773 2781
e 2773 2782
e 2773 2783
e 2773 2784
e 2773 2785
e 2773 2786
e 2773 2787
e 2773 2788
e 2773 2789
e 2773 2790
e 2773 2791
e 2773 2792
e 2773 2793
e 2773 2794
e 2773 2795
e 2773 2796
e 2773 2797
e 2773 2798
e 2773 2799
e 2773 2800
e 2773 2801
e 2773 2802
e 2773 2803
e 2773 2804
e 2773 2805
e 2773 2806
e 2773 2807
e 2773 2808
e 2773 2809
e 2773 2810
e 2811 2812
e 2811 2813
e 2811 2814
e 2811 2815
e 2811 2816
e 2811 2817
e 2811 2818
e 2811 2819
e 2811 2820
e 2811 2821
e 2811 2822
e 2811 2823
e 2824 2825
e 2824 2826
e 2824 2827
e 2824 2828
e 2824 2829
e 2824 2830
e 2824 2831
e 2824 2832
e 2824 2833
e 2824 2834
e 2824 2835
e 2824 2836
e 2824 2837
e 2824 2838
e 2824 2839
e 2824 2840
e 2824 2841
e 2824 2842
e 2824 2843
e 2824 2844
e 2824 2845
e 2824 2846
e 2824 2847
e 2824 2848
e 2824 2849
e 2824 2850
e 2824 2851
e 2824 2852
e 2824 2853
e 2824 2854
e 2824 2855
e 2824 2856
e 2857 2858
e 2857 2859
e 2857 2860
e 2857 2861
e 2857 2862
e 2857 2863
e 2857 2864
e 2857 2865
e 2857 2866
e 2857 2867
e 2857 2868
e 2857 2869
e 2857 2870
e 2857 2871
e 2857 2872
e 2857 2873
e 2857 2874
e 2857 2875
e 2857 2876
e 2857 2877
e 2857 2878
e 2857 2879
e 2857 2880
e 2857 2881
e 2857 2882
e 2857 2883
e 2857 2884
e 2857 2885
e 2857 2886
e 2857 2887
e 2857 2888
e 2857 2889
e 2857 2890
e 2857 2891
e 2857 2892
e 2857 2893
e 2857 2894
e 2857 2895
e 2857 2896
e 2857 2897
e 2857 2898
e 2857 2899
e 2857 2900
e 2857 2901
e 2857 2902
e 2857 2903
e 2857 2904
e 2857 2905
e 2857 2906
e 2857 2907
e 2857 2908
e 2857 2909
e 2857 2910
e 2857 2911
e 2857 2912
e 2857 2913
e 2857 2914
e 2857 2915
e 2916 2917
e 2916 2918
e 2916 2919
e 2916 2920
e 2916 2921
e 2916 2922
e 2916 2923
e 2916 2924
e 2916 2925
e 2916 2926
e 2927 2928
e 2927 2929
e 2927 2930
e 2927 2931
e 2927 2932
e 2927 2933
e 2927 2934
e 2927 2935
e 2927 2936
e 2927 2937
e 2927 2938
e 2927 2939
e 2927 2940
e 2927 2941
e 2927 2942
e 2927 2943
e 2927 2944
e 2927 2945
e 2927 2946
e 2927 2947
e 2927 2948
e 2927 2949
e 2927 2950
e 2927 2951
e 2927 2952
e 2927 2953
e 2927 2954
e 2927 2955
e 2927 2956
e 2927 2957
e 2927 2958
e 2927 2959
e 2927 2960
e 2927 2961
e 2927 2962
e 2927 2963
e 2927 2964
e 2927 2965
e 2927 2966
e 2927 2967
e 2927 2968
e 2927 2969
e 2927 2970
e 2927 2971
e 2927 2972
e 2927 2973
e 2927 2974
e 2927 2975
e 2927 2976
e 2927 2977
e 2927 2978
e 2927 2979
e 2927 2980
e 2927 2981
e 2927 2982
e 2927 2983
e 2927 2984
e 2927 2985
e 2986 2987
e 2986 2988
e 2986 2989
e 2986 2990
e 2986 2991
e 2986 2992
e 2986 2993
e 2986 2994
e 2986 2995
e 2986 2996
e 2986 2997
e 2986 2998
e 2986 2999
e 2986 3000
e 2986 3001
